
Log started (V20.1.0.0) Tue Aug  9 01:09:01 2022


Problem 'pp.lp' read.
Read time = 0.00 sec. (0.00 ticks)
Version identifier: 20.1.0.0 | 2020-11-10 | 9bedb6d68
Dual infeasible due to empty column 'x1'.
Presolve time = 0.00 sec. (0.00 ticks)
Presolve - Unbounded or infeasible.
Solution time =    0.00 sec.
Deterministic time = 0.00 ticks  (1.14 ticks/sec)
No solution exists.

Log started (V20.1.0.0) Tue Aug  9 08:54:23 2022


Problem 'pp.lp' read.
Read time = 0.00 sec. (0.00 ticks)
Version identifier: 20.1.0.0 | 2020-11-10 | 9bedb6d68
Tried aggregator 1 time.
LP Presolve eliminated 3 rows and 2 columns.
Aggregator did 1 substitutions.
All rows and columns eliminated.
Presolve time = 0.00 sec. (0.00 ticks)

Dual simplex - Optimal:  Objective =  3.0000000000e+01
Solution time =    0.02 sec.  Iterations = 0 (0)
Deterministic time = 0.00 ticks  (0.21 ticks/sec)


Variable Name           Solution Value
x1                            5.000000
x2                            5.000000
All other variables matching '*' are 0.
